lp-files/instances/small/instance10_12.lp
Minimize
z: 56 x1 + 48 x2 + 64 x3 + 70 x4 + 25 x5 + 42 x6 + 40 x7 + 48 x8 + 54 x9 + 21 x10 + 72 x11 + 30 x12
Subject To
a1a1: y1,1 - x1 <= 0
a1a2: y1,2 - x2 <= 0
a1a3: y1,3 - x3 <= 0
a1a4: y1,4 - x4 <= 0
a1a5: y1,5 - x5 <= 0
a1a6: y1,6 - x6 <= 0
a1a7: y1,7 - x7 <= 0
a1a8: y1,8 - x8 <= 0
a1a9: y1,9 - x9 <= 0
a1a10: y1,10 - x10 <= 0
a1a11: y1,11 - x11 <= 0
a1a12: y1,12 - x12 <= 0
a2a1: y2,1 - x1 <= 0
a2a2: y2,2 - x2 <= 0
a2a3: y2,3 - x3 <= 0
a2a4: y2,4 - x4 <= 0
a2a5: y2,5 - x5 <= 0
a2a6: y2,6 - x6 <= 0
a2a7: y2,7 - x7 <= 0
a2a8: y2,8 - x8 <= 0
a2a9: y2,9 - x9 <= 0
a2a10: y2,10 - x10 <= 0
a2a11: y2,11 - x11 <= 0
a2a12: y2,12 - x12 <= 0
a3a1: y3,1 - x1 <= 0
a3a2: y3,2 - x2 <= 0
a3a3: y3,3 - x3 <= 0
a3a4: y3,4 - x4 <= 0
a3a5: y3,5 - x5 <= 0
a3a6: y3,6 - x6 <= 0
a3a7: y3,7 - x7 <= 0
a3a8: y3,8 - x8 <= 0
a3a9: y3,9 - x9 <= 0
a3a10: y3,10 - x10 <= 0
a3a11: y3,11 - x11 <= 0
a3a12: y3,12 - x12 <= 0
a4a1: y4,1 - x1 <= 0
a4a2: y4,2 - x2 <= 0
a4a3: y4,3 - x3 <= 0
a4a4: y4,4 - x4 <= 0
a4a5: y4,5 - x5 <= 0
a4a6: y4,6 - x6 <= 0
a4a7: y4,7 - x7 <= 0
a4a8: y4,8 - x8 <= 0
a4a9: y4,9 - x9 <= 0
a4a10: y4,10 - x10 <= 0
a4a11: y4,11 - x11 <= 0
a4a12: y4,12 - x12 <= 0
a5a1: y5,1 - x1 <= 0
a5a2: y5,2 - x2 <= 0
a5a3: y5,3 - x3 <= 0
a5a4: y5,4 - x4 <= 0
a5a5: y5,5 - x5 <= 0
a5a6: y5,6 - x6 <= 0
a5a7: y5,7 - x7 <= 0
a5a8: y5,8 - x8 <= 0
a5a9: y5,9 - x9 <= 0
a5a10: y5,10 - x10 <= 0
a5a11: y5,11 - x11 <= 0
a5a12: y5,12 - x12 <= 0
a6a1: y6,1 - x1 <= 0
a6a2: y6,2 - x2 <= 0
a6a3: y6,3 - x3 <= 0
a6a4: y6,4 - x4 <= 0
a6a5: y6,5 - x5 <= 0
a6a6: y6,6 - x6 <= 0
a6a7: y6,7 - x7 <= 0
a6a8: y6,8 - x8 <= 0
a6a9: y6,9 - x9 <= 0
a6a10: y6,10 - x10 <= 0
a6a11: y6,11 - x11 <= 0
a6a12: y6,12 - x12 <= 0
a7a1: y7,1 - x1 <= 0
a7a2: y7,2 - x2 <= 0
a7a3: y7,3 - x3 <= 0
a7a4: y7,4 - x4 <= 0
a7a5: y7,5 - x5 <= 0
a7a6: y7,6 - x6 <= 0
a7a7: y7,7 - x7 <= 0
a7a8: y7,8 - x8 <= 0
a7a9: y7,9 - x9 <= 0
a7a10: y7,10 - x10 <= 0
a7a11: y7,11 - x11 <= 0
a7a12: y7,12 - x12 <= 0
a8a1: y8,1 - x1 <= 0
a8a2: y8,2 - x2 <= 0
a8a3: y8,3 - x3 <= 0
a8a4: y8,4 - x4 <= 0
a8a5: y8,5 - x5 <= 0
a8a6: y8,6 - x6 <= 0
a8a7: y8,7 - x7 <= 0
a8a8: y8,8 - x8 <= 0
a8a9: y8,9 - x9 <= 0
a8a10: y8,10 - x10 <= 0
a8a11: y8,11 - x11 <= 0
a8a12: y8,12 - x12 <= 0
a9a1: y9,1 - x1 <= 0
a9a2: y9,2 - x2 <= 0
a9a3: y9,3 - x3 <= 0
a9a4: y9,4 - x4 <= 0
a9a5: y9,5 - x5 <= 0
a9a6: y9,6 - x6 <= 0
a9a7: y9,7 - x7 <= 0
a9a8: y9,8 - x8 <= 0
a9a9: y9,9 - x9 <= 0
a9a10: y9,10 - x10 <= 0
a9a11: y9,11 - x11 <= 0
a9a12: y9,12 - x12 <= 0
a10a1: y10,1 - x1 <= 0
a10a2: y10,2 - x2 <= 0
a10a3: y10,3 - x3 <= 0
a10a4: y10,4 - x4 <= 0
a10a5: y10,5 - x5 <= 0
a10a6: y10,6 - x6 <= 0
a10a7: y10,7 - x7 <= 0
a10a8: y10,8 - x8 <= 0
a10a9: y10,9 - x9 <= 0
a10a10: y10,10 - x10 <= 0
a10a11: y10,11 - x11 <= 0
a10a12: y10,12 - x12 <= 0
b1b4b1: y1,1 + y4,1 <= 1
b1b4b2: y1,2 + y4,2 <= 1
b1b4b3: y1,3 + y4,3 <= 1
b1b4b4: y1,4 + y4,4 <= 1
b1b4b5: y1,5 + y4,5 <= 1
b1b4b6: y1,6 + y4,6 <= 1
b1b4b7: y1,7 + y4,7 <= 1
b1b4b8: y1,8 + y4,8 <= 1
b1b4b9: y1,9 + y4,9 <= 1
b1b4b10: y1,10 + y4,10 <= 1
b1b4b11: y1,11 + y4,11 <= 1
b1b4b12: y1,12 + y4,12 <= 1
b2b3b1: y2,1 + y3,1 <= 1
b2b3b2: y2,2 + y3,2 <= 1
b2b3b3: y2,3 + y3,3 <= 1
b2b3b4: y2,4 + y3,4 <= 1
b2b3b5: y2,5 + y3,5 <= 1
b2b3b6: y2,6 + y3,6 <= 1
b2b3b7: y2,7 + y3,7 <= 1
b2b3b8: y2,8 + y3,8 <= 1
b2b3b9: y2,9 + y3,9 <= 1
b2b3b10: y2,10 + y3,10 <= 1
b2b3b11: y2,11 + y3,11 <= 1
b2b3b12: y2,12 + y3,12 <= 1
b3b2b1: y3,1 + y2,1 <= 1
b3b2b2: y3,2 + y2,2 <= 1
b3b2b3: y3,3 + y2,3 <= 1
b3b2b4: y3,4 + y2,4 <= 1
b3b2b5: y3,5 + y2,5 <= 1
b3b2b6: y3,6 + y2,6 <= 1
b3b2b7: y3,7 + y2,7 <= 1
b3b2b8: y3,8 + y2,8 <= 1
b3b2b9: y3,9 + y2,9 <= 1
b3b2b10: y3,10 + y2,10 <= 1
b3b2b11: y3,11 + y2,11 <= 1
b3b2b12: y3,12 + y2,12 <= 1
b3b5b1: y3,1 + y5,1 <= 1
b3b5b2: y3,2 + y5,2 <= 1
b3b5b3: y3,3 + y5,3 <= 1
b3b5b4: y3,4 + y5,4 <= 1
b3b5b5: y3,5 + y5,5 <= 1
b3b5b6: y3,6 + y5,6 <= 1
b3b5b7: y3,7 + y5,7 <= 1
b3b5b8: y3,8 + y5,8 <= 1
b3b5b9: y3,9 + y5,9 <= 1
b3b5b10: y3,10 + y5,10 <= 1
b3b5b11: y3,11 + y5,11 <= 1
b3b5b12: y3,12 + y5,12 <= 1
b3b6b1: y3,1 + y6,1 <= 1
b3b6b2: y3,2 + y6,2 <= 1
b3b6b3: y3,3 + y6,3 <= 1
b3b6b4: y3,4 + y6,4 <= 1
b3b6b5: y3,5 + y6,5 <= 1
b3b6b6: y3,6 + y6,6 <= 1
b3b6b7: y3,7 + y6,7 <= 1
b3b6b8: y3,8 + y6,8 <= 1
b3b6b9: y3,9 + y6,9 <= 1
b3b6b10: y3,10 + y6,10 <= 1
b3b6b11: y3,11 + y6,11 <= 1
b3b6b12: y3,12 + y6,12 <= 1
b3b8b1: y3,1 + y8,1 <= 1
b3b8b2: y3,2 + y8,2 <= 1
b3b8b3: y3,3 + y8,3 <= 1
b3b8b4: y3,4 + y8,4 <= 1
b3b8b5: y3,5 + y8,5 <= 1
b3b8b6: y3,6 + y8,6 <= 1
b3b8b7: y3,7 + y8,7 <= 1
b3b8b8: y3,8 + y8,8 <= 1
b3b8b9: y3,9 + y8,9 <= 1
b3b8b10: y3,10 + y8,10 <= 1
b3b8b11: y3,11 + y8,11 <= 1
b3b8b12: y3,12 + y8,12 <= 1
b4b1b1: y4,1 + y1,1 <= 1
b4b1b2: y4,2 + y1,2 <= 1
b4b1b3: y4,3 + y1,3 <= 1
b4b1b4: y4,4 + y1,4 <= 1
b4b1b5: y4,5 + y1,5 <= 1
b4b1b6: y4,6 + y1,6 <= 1
b4b1b7: y4,7 + y1,7 <= 1
b4b1b8: y4,8 + y1,8 <= 1
b4b1b9: y4,9 + y1,9 <= 1
b4b1b10: y4,10 + y1,10 <= 1
b4b1b11: y4,11 + y1,11 <= 1
b4b1b12: y4,12 + y1,12 <= 1
b4b7b1: y4,1 + y7,1 <= 1
b4b7b2: y4,2 + y7,2 <= 1
b4b7b3: y4,3 + y7,3 <= 1
b4b7b4: y4,4 + y7,4 <= 1
b4b7b5: y4,5 + y7,5 <= 1
b4b7b6: y4,6 + y7,6 <= 1
b4b7b7: y4,7 + y7,7 <= 1
b4b7b8: y4,8 + y7,8 <= 1
b4b7b9: y4,9 + y7,9 <= 1
b4b7b10: y4,10 + y7,10 <= 1
b4b7b11: y4,11 + y7,11 <= 1
b4b7b12: y4,12 + y7,12 <= 1
b5b3b1: y5,1 + y3,1 <= 1
b5b3b2: y5,2 + y3,2 <= 1
b5b3b3: y5,3 + y3,3 <= 1
b5b3b4: y5,4 + y3,4 <= 1
b5b3b5: y5,5 + y3,5 <= 1
b5b3b6: y5,6 + y3,6 <= 1
b5b3b7: y5,7 + y3,7 <= 1
b5b3b8: y5,8 + y3,8 <= 1
b5b3b9: y5,9 + y3,9 <= 1
b5b3b10: y5,10 + y3,10 <= 1
b5b3b11: y5,11 + y3,11 <= 1
b5b3b12: y5,12 + y3,12 <= 1
b5b7b1: y5,1 + y7,1 <= 1
b5b7b2: y5,2 + y7,2 <= 1
b5b7b3: y5,3 + y7,3 <= 1
b5b7b4: y5,4 + y7,4 <= 1
b5b7b5: y5,5 + y7,5 <= 1
b5b7b6: y5,6 + y7,6 <= 1
b5b7b7: y5,7 + y7,7 <= 1
b5b7b8: y5,8 + y7,8 <= 1
b5b7b9: y5,9 + y7,9 <= 1
b5b7b10: y5,10 + y7,10 <= 1
b5b7b11: y5,11 + y7,11 <= 1
b5b7b12: y5,12 + y7,12 <= 1
b5b10b1: y5,1 + y10,1 <= 1
b5b10b2: y5,2 + y10,2 <= 1
b5b10b3: y5,3 + y10,3 <= 1
b5b10b4: y5,4 + y10,4 <= 1
b5b10b5: y5,5 + y10,5 <= 1
b5b10b6: y5,6 + y10,6 <= 1
b5b10b7: y5,7 + y10,7 <= 1
b5b10b8: y5,8 + y10,8 <= 1
b5b10b9: y5,9 + y10,9 <= 1
b5b10b10: y5,10 + y10,10 <= 1
b5b10b11: y5,11 + y10,11 <= 1
b5b10b12: y5,12 + y10,12 <= 1
b6b3b1: y6,1 + y3,1 <= 1
b6b3b2: y6,2 + y3,2 <= 1
b6b3b3: y6,3 + y3,3 <= 1
b6b3b4: y6,4 + y3,4 <= 1
b6b3b5: y6,5 + y3,5 <= 1
b6b3b6: y6,6 + y3,6 <= 1
b6b3b7: y6,7 + y3,7 <= 1
b6b3b8: y6,8 + y3,8 <= 1
b6b3b9: y6,9 + y3,9 <= 1
b6b3b10: y6,10 + y3,10 <= 1
b6b3b11: y6,11 + y3,11 <= 1
b6b3b12: y6,12 + y3,12 <= 1
b7b4b1: y7,1 + y4,1 <= 1
b7b4b2: y7,2 + y4,2 <= 1
b7b4b3: y7,3 + y4,3 <= 1
b7b4b4: y7,4 + y4,4 <= 1
b7b4b5: y7,5 + y4,5 <= 1
b7b4b6: y7,6 + y4,6 <= 1
b7b4b7: y7,7 + y4,7 <= 1
b7b4b8: y7,8 + y4,8 <= 1
b7b4b9: y7,9 + y4,9 <= 1
b7b4b10: y7,10 + y4,10 <= 1
b7b4b11: y7,11 + y4,11 <= 1
b7b4b12: y7,12 + y4,12 <= 1
b7b5b1: y7,1 + y5,1 <= 1
b7b5b2: y7,2 + y5,2 <= 1
b7b5b3: y7,3 + y5,3 <= 1
b7b5b4: y7,4 + y5,4 <= 1
b7b5b5: y7,5 + y5,5 <= 1
b7b5b6: y7,6 + y5,6 <= 1
b7b5b7: y7,7 + y5,7 <= 1
b7b5b8: y7,8 + y5,8 <= 1
b7b5b9: y7,9 + y5,9 <= 1
b7b5b10: y7,10 + y5,10 <= 1
b7b5b11: y7,11 + y5,11 <= 1
b7b5b12: y7,12 + y5,12 <= 1
b8b3b1: y8,1 + y3,1 <= 1
b8b3b2: y8,2 + y3,2 <= 1
b8b3b3: y8,3 + y3,3 <= 1
b8b3b4: y8,4 + y3,4 <= 1
b8b3b5: y8,5 + y3,5 <= 1
b8b3b6: y8,6 + y3,6 <= 1
b8b3b7: y8,7 + y3,7 <= 1
b8b3b8: y8,8 + y3,8 <= 1
b8b3b9: y8,9 + y3,9 <= 1
b8b3b10: y8,10 + y3,10 <= 1
b8b3b11: y8,11 + y3,11 <= 1
b8b3b12: y8,12 + y3,12 <= 1
b8b9b1: y8,1 + y9,1 <= 1
b8b9b2: y8,2 + y9,2 <= 1
b8b9b3: y8,3 + y9,3 <= 1
b8b9b4: y8,4 + y9,4 <= 1
b8b9b5: y8,5 + y9,5 <= 1
b8b9b6: y8,6 + y9,6 <= 1
b8b9b7: y8,7 + y9,7 <= 1
b8b9b8: y8,8 + y9,8 <= 1
b8b9b9: y8,9 + y9,9 <= 1
b8b9b10: y8,10 + y9,10 <= 1
b8b9b11: y8,11 + y9,11 <= 1
b8b9b12: y8,12 + y9,12 <= 1
b9b8b1: y9,1 + y8,1 <= 1
b9b8b2: y9,2 + y8,2 <= 1
b9b8b3: y9,3 + y8,3 <= 1
b9b8b4: y9,4 + y8,4 <= 1
b9b8b5: y9,5 + y8,5 <= 1
b9b8b6: y9,6 + y8,6 <= 1
b9b8b7: y9,7 + y8,7 <= 1
b9b8b8: y9,8 + y8,8 <= 1
b9b8b9: y9,9 + y8,9 <= 1
b9b8b10: y9,10 + y8,10 <= 1
b9b8b11: y9,11 + y8,11 <= 1
b9b8b12: y9,12 + y8,12 <= 1
b9b10b1: y9,1 + y10,1 <= 1
b9b10b2: y9,2 + y10,2 <= 1
b9b10b3: y9,3 + y10,3 <= 1
b9b10b4: y9,4 + y10,4 <= 1
b9b10b5: y9,5 + y10,5 <= 1
b9b10b6: y9,6 + y10,6 <= 1
b9b10b7: y9,7 + y10,7 <= 1
b9b10b8: y9,8 + y10,8 <= 1
b9b10b9: y9,9 + y10,9 <= 1
b9b10b10: y9,10 + y10,10 <= 1
b9b10b11: y9,11 + y10,11 <= 1
b9b10b12: y9,12 + y10,12 <= 1
b10b5b1: y10,1 + y5,1 <= 1
b10b5b2: y10,2 + y5,2 <= 1
b10b5b3: y10,3 + y5,3 <= 1
b10b5b4: y10,4 + y5,4 <= 1
b10b5b5: y10,5 + y5,5 <= 1
b10b5b6: y10,6 + y5,6 <= 1
b10b5b7: y10,7 + y5,7 <= 1
b10b5b8: y10,8 + y5,8 <= 1
b10b5b9: y10,9 + y5,9 <= 1
b10b5b10: y10,10 + y5,10 <= 1
b10b5b11: y10,11 + y5,11 <= 1
b10b5b12: y10,12 + y5,12 <= 1
b10b9b1: y10,1 + y9,1 <= 1
b10b9b2: y10,2 + y9,2 <= 1
b10b9b3: y10,3 + y9,3 <= 1
b10b9b4: y10,4 + y9,4 <= 1
b10b9b5: y10,5 + y9,5 <= 1
b10b9b6: y10,6 + y9,6 <= 1
b10b9b7: y10,7 + y9,7 <= 1
b10b9b8: y10,8 + y9,8 <= 1
b10b9b9: y10,9 + y9,9 <= 1
b10b9b10: y10,10 + y9,10 <= 1
b10b9b11: y10,11 + y9,11 <= 1
b10b9b12: y10,12 + y9,12 <= 1
c1: y1,1 + y1,2 + y1,3 + y1,4 + y1,5 + y1,6 + y1,7 + y1,8 + y1,9 + y1,10 + y1,11 + y1,12 = 1
c2: y2,1 + y2,2 + y2,3 + y2,4 + y2,5 + y2,6 + y2,7 + y2,8 + y2,9 + y2,10 + y2,11 + y2,12 = 1
c3: y3,1 + y3,2 + y3,3 + y3,4 + y3,5 + y3,6 + y3,7 + y3,8 + y3,9 + y3,10 + y3,11 + y3,12 = 1
c4: y4,1 + y4,2 + y4,3 + y4,4 + y4,5 + y4,6 + y4,7 + y4,8 + y4,9 + y4,10 + y4,11 + y4,12 = 1
c5: y5,1 + y5,2 + y5,3 + y5,4 + y5,5 + y5,6 + y5,7 + y5,8 + y5,9 + y5,10 + y5,11 + y5,12 = 1
c6: y6,1 + y6,2 + y6,3 + y6,4 + y6,5 + y6,6 + y6,7 + y6,8 + y6,9 + y6,10 + y6,11 + y6,12 = 1
c7: y7,1 + y7,2 + y7,3 + y7,4 + y7,5 + y7,6 + y7,7 + y7,8 + y7,9 + y7,10 + y7,11 + y7,12 = 1
c8: y8,1 + y8,2 + y8,3 + y8,4 + y8,5 + y8,6 + y8,7 + y8,8 + y8,9 + y8,10 + y8,11 + y8,12 = 1
c9: y9,1 + y9,2 + y9,3 + y9,4 + y9,5 + y9,6 + y9,7 + y9,8 + y9,9 + y9,10 + y9,11 + y9,12 = 1
c10: y10,1 + y10,2 + y10,3 + y10,4 + y10,5 + y10,6 + y10,7 + y10,8 + y10,9 + y10,10 + y10,11 + y10,12 = 1
d1: y1,1 + y2,1 + y3,1 + y4,1 + y5,1 + y6,1 + y7,1 + y8,1 + y9,1 + y10,1 <= 7
d2: y1,2 + y2,2 + y3,2 + y4,2 + y5,2 + y6,2 + y7,2 + y8,2 + y9,2 + y10,2 <= 6
d3: y1,3 + y2,3 + y3,3 + y4,3 + y5,3 + y6,3 + y7,3 + y8,3 + y9,3 + y10,3 <= 8
d4: y1,4 + y2,4 + y3,4 + y4,4 + y5,4 + y6,4 + y7,4 + y8,4 + y9,4 + y10,4 <= 10
d5: y1,5 + y2,5 + y3,5 + y4,5 + y5,5 + y6,5 + y7,5 + y8,5 + y9,5 + y10,5 <= 5
d6: y1,6 + y2,6 + y3,6 + y4,6 + y5,6 + y6,6 + y7,6 + y8,6 + y9,6 + y10,6 <= 6
d7: y1,7 + y2,7 + y3,7 + y4,7 + y5,7 + y6,7 + y7,7 + y8,7 + y9,7 + y10,7 <= 5
d8: y1,8 + y2,8 + y3,8 + y4,8 + y5,8 + y6,8 + y7,8 + y8,8 + y9,8 + y10,8 <= 8
d9: y1,9 + y2,9 + y3,9 + y4,9 + y5,9 + y6,9 + y7,9 + y8,9 + y9,9 + y10,9 <= 9
d10: y1,10 + y2,10 + y3,10 + y4,10 + y5,10 + y6,10 + y7,10 + y8,10 + y9,10 + y10,10 <= 3
d11: y1,11 + y2,11 + y3,11 + y4,11 + y5,11 + y6,11 + y7,11 + y8,11 + y9,11 + y10,11 <= 9
d12: y1,12 + y2,12 + y3,12 + y4,12 + y5,12 + y6,12 + y7,12 + y8,12 + y9,12 + y10,12 <= 6
Binaries
x1
x2
x3
x4
x5
x6
x7
x8
x9
x10
x11
x12
y1,1
y1,2
y1,3
y1,4
y1,5
y1,6
y1,7
y1,8
y1,9
y1,10
y2,1
y2,2
y2,3
y2,4
y2,5
y2,6
y2,7
y2,8
y2,9
y2,10
y3,1
y3,2
y3,3
y3,4
y3,5
y3,6
y3,7
y3,8
y3,9
y3,10
y4,1
y4,2
y4,3
y4,4
y4,5
y4,6
y4,7
y4,8
y4,9
y4,10
y5,1
y5,2
y5,3
y5,4
y5,5
y5,6
y5,7
y5,8
y5,9
y5,10
y6,1
y6,2
y6,3
y6,4
y6,5
y6,6
y6,7
y6,8
y6,9
y6,10
y7,1
y7,2
y7,3
y7,4
y7,5
y7,6
y7,7
y7,8
y7,9
y7,10
y8,1
y8,2
y8,3
y8,4
y8,5
y8,6
y8,7
y8,8
y8,9
y8,10
y9,1
y9,2
y9,3
y9,4
y9,5
y9,6
y9,7
y9,8
y9,9
y9,10
y10,1
y10,2
y10,3
y10,4
y10,5
y10,6
y10,7
y10,8
y10,9
y10,10
y11,1
y11,2
y11,3
y11,4
y11,5
y11,6
y11,7
y11,8
y11,9
y11,10
y12,1
y12,2
y12,3
y12,4
y12,5
y12,6
y12,7
y12,8
y12,9
y12,10
End