instances/small/instance10_12.txt
12 10
56 7
48 6
64 8
70 10
25 5
42 6
40 5
48 8
54 9
21 3
72 9
30 6
1 3
1 2
3 4 5 7
1 6
2 6 9
0
0
1 8
1 9
0
